set F_UNIQ := 6 9 12 15;
set F_NODES[6] := 6 7 8;
set F_NODES[9] := 9 10 11;
set F_NODES[12] := 12 13 14;
set F_NODES[15] := 15 16 17;
#definition

# set
set V := 1 2 3 4 5 ; 	# customer set
set F := 6 9 12 15 7 8 10 11 13 14 16 17 ;#recharging & battery swapping station
set D0 :=0;
set Dsig :=18;


# param
param CV := 200;    		# ECV fixed cost(Topic Given)
param C := 700;   		# ECV max load
param Q := 77.75; 		# ECV/BSV battery level
param h := 1;     		# ECV consumption

param CB := 267;    		# BSV fixed cost(Topic Given)
param Qplun := 5;       # BSV max load(battery)
param hplun := 1;     	# BSV consumption
param W :=155.50;		# BSV battery level

param Ct := 10;    		# travel cost
param Cr := 100;    		# recharging cost
param lamda := 0.00;	# battery swap time
param Cb ;  	    # battery swap cost(BSS/BSV)
param n :=5;	   		# number of customers
param g :=10.41 ;     	# the recharging rate of ECV 



# customer demend
param m :=
0 0
1 10
2 20
3 10
4 10
5 20
6 0
9 0
12 0
15 0
7 0
8 0
10 0
11 0
13 0
14 0
16 0
17 0
18 0;

param e :=
0 0
1 666
2 1078
3 1745
4 2701
5 15
6 0
9 0
12 0
15 0
7 0
8 0
10 0
11 0
13 0
14 0
16 0
17 0
18 0;

param l :=
0 3390
1 1245
2 1593
3 2240
4 3258
5 607
6 3390
9 3390
12 3390
15 3390
7 3390
8 3390
10 3390
11 3390
13 3390
14 3390
16 3390
17 3390
18 3390;

param s :=
0 0
1 90
2 90
3 90
4 90
5 90
6 0
9 0
12 0
15 0
7 0
8 0
10 0
11 0
13 0
14 0
16 0
17 0
18 0;

param d : 0 1 2 3 4 5 6 9 12 15 7 8 10 11 13 14 16 17 18 :=
0 0.0000 38.0789 45.1774 31.0483 32.3883 15.8114 0.0000 37.2022 24.0208 41.6773 0.0000 0.0000 37.2022 37.2022 24.0208 24.0208 41.6773 41.6773 0.0000
1 38.0789 0.0000 49.2037 30.8869 67.7422 50.0000 38.0789 8.6023 35.1710 59.8080 38.0789 38.0789 8.6023 8.6023 35.1710 35.1710 59.8080 59.8080 38.0789
2 45.1774 49.2037 0.0000 19.2094 48.8262 60.0083 45.1774 41.0488 21.5870 19.2354 45.1774 45.1774 41.0488 41.0488 21.5870 21.5870 19.2354 19.2354 45.1774
3 31.0483 30.8869 19.2094 0.0000 47.1699 46.8402 31.0483 23.4094 9.2195 29.6142 31.0483 31.0483 23.4094 23.4094 9.2195 9.2195 29.6142 29.6142 31.0483
4 32.3883 67.7422 48.8262 47.1699 0.0000 33.6006 32.3883 64.2884 38.0789 32.8938 32.3883 32.3883 64.2884 64.2884 38.0789 38.0789 32.8938 32.8938 32.3883
5 15.8114 50.0000 60.0083 46.8402 33.6006 0.0000 15.8114 50.9313 39.4588 53.4509 15.8114 15.8114 50.9313 50.9313 39.4588 39.4588 53.4509 53.4509 15.8114
6 0.0000 38.0789 45.1774 31.0483 32.3883 15.8114 0.0000 37.2022 24.0208 41.6773 0.0000 0.0000 37.2022 37.2022 24.0208 24.0208 41.6773 41.6773 0.0000
9 37.2022 8.6023 41.0488 23.4094 64.2884 50.9313 37.2022 0.0000 29.0689 52.8867 37.2022 37.2022 0.0000 0.0000 29.0689 29.0689 52.8867 52.8867 37.2022
12 24.0208 35.1710 21.5870 9.2195 38.0789 39.4588 24.0208 29.0689 0.0000 25.0599 24.0208 24.0208 29.0689 29.0689 0.0000 0.0000 25.0599 25.0599 24.0208
15 41.6773 59.8080 19.2354 29.6142 32.8938 53.4509 41.6773 52.8867 25.0599 0.0000 41.6773 41.6773 52.8867 52.8867 25.0599 25.0599 0.0000 0.0000 41.6773
7 0.0000 38.0789 45.1774 31.0483 32.3883 15.8114 0.0000 37.2022 24.0208 41.6773 0.0000 0.0000 37.2022 37.2022 24.0208 24.0208 41.6773 41.6773 0.0000
8 0.0000 38.0789 45.1774 31.0483 32.3883 15.8114 0.0000 37.2022 24.0208 41.6773 0.0000 0.0000 37.2022 37.2022 24.0208 24.0208 41.6773 41.6773 0.0000
10 37.2022 8.6023 41.0488 23.4094 64.2884 50.9313 37.2022 0.0000 29.0689 52.8867 37.2022 37.2022 0.0000 0.0000 29.0689 29.0689 52.8867 52.8867 37.2022
11 37.2022 8.6023 41.0488 23.4094 64.2884 50.9313 37.2022 0.0000 29.0689 52.8867 37.2022 37.2022 0.0000 0.0000 29.0689 29.0689 52.8867 52.8867 37.2022
13 24.0208 35.1710 21.5870 9.2195 38.0789 39.4588 24.0208 29.0689 0.0000 25.0599 24.0208 24.0208 29.0689 29.0689 0.0000 0.0000 25.0599 25.0599 24.0208
14 24.0208 35.1710 21.5870 9.2195 38.0789 39.4588 24.0208 29.0689 0.0000 25.0599 24.0208 24.0208 29.0689 29.0689 0.0000 0.0000 25.0599 25.0599 24.0208
16 41.6773 59.8080 19.2354 29.6142 32.8938 53.4509 41.6773 52.8867 25.0599 0.0000 41.6773 41.6773 52.8867 52.8867 25.0599 25.0599 0.0000 0.0000 41.6773
17 41.6773 59.8080 19.2354 29.6142 32.8938 53.4509 41.6773 52.8867 25.0599 0.0000 41.6773 41.6773 52.8867 52.8867 25.0599 25.0599 0.0000 0.0000 41.6773
18 0.0000 38.0789 45.1774 31.0483 32.3883 15.8114 0.0000 37.2022 24.0208 41.6773 0.0000 0.0000 37.2022 37.2022 24.0208 24.0208 41.6773 41.6773 0.0000
;

param t : 0 1 2 3 4 5 6 9 12 15 7 8 10 11 13 14 16 17 18 :=
0 0.0000 38.0789 45.1774 31.0483 32.3883 15.8114 0.0000 37.2022 24.0208 41.6773 0.0000 0.0000 37.2022 37.2022 24.0208 24.0208 41.6773 41.6773 0.0000
1 38.0789 0.0000 49.2037 30.8869 67.7422 50.0000 38.0789 8.6023 35.1710 59.8080 38.0789 38.0789 8.6023 8.6023 35.1710 35.1710 59.8080 59.8080 38.0789
2 45.1774 49.2037 0.0000 19.2094 48.8262 60.0083 45.1774 41.0488 21.5870 19.2354 45.1774 45.1774 41.0488 41.0488 21.5870 21.5870 19.2354 19.2354 45.1774
3 31.0483 30.8869 19.2094 0.0000 47.1699 46.8402 31.0483 23.4094 9.2195 29.6142 31.0483 31.0483 23.4094 23.4094 9.2195 9.2195 29.6142 29.6142 31.0483
4 32.3883 67.7422 48.8262 47.1699 0.0000 33.6006 32.3883 64.2884 38.0789 32.8938 32.3883 32.3883 64.2884 64.2884 38.0789 38.0789 32.8938 32.8938 32.3883
5 15.8114 50.0000 60.0083 46.8402 33.6006 0.0000 15.8114 50.9313 39.4588 53.4509 15.8114 15.8114 50.9313 50.9313 39.4588 39.4588 53.4509 53.4509 15.8114
6 0.0000 38.0789 45.1774 31.0483 32.3883 15.8114 0.0000 37.2022 24.0208 41.6773 0.0000 0.0000 37.2022 37.2022 24.0208 24.0208 41.6773 41.6773 0.0000
9 37.2022 8.6023 41.0488 23.4094 64.2884 50.9313 37.2022 0.0000 29.0689 52.8867 37.2022 37.2022 0.0000 0.0000 29.0689 29.0689 52.8867 52.8867 37.2022
12 24.0208 35.1710 21.5870 9.2195 38.0789 39.4588 24.0208 29.0689 0.0000 25.0599 24.0208 24.0208 29.0689 29.0689 0.0000 0.0000 25.0599 25.0599 24.0208
15 41.6773 59.8080 19.2354 29.6142 32.8938 53.4509 41.6773 52.8867 25.0599 0.0000 41.6773 41.6773 52.8867 52.8867 25.0599 25.0599 0.0000 0.0000 41.6773
7 0.0000 38.0789 45.1774 31.0483 32.3883 15.8114 0.0000 37.2022 24.0208 41.6773 0.0000 0.0000 37.2022 37.2022 24.0208 24.0208 41.6773 41.6773 0.0000
8 0.0000 38.0789 45.1774 31.0483 32.3883 15.8114 0.0000 37.2022 24.0208 41.6773 0.0000 0.0000 37.2022 37.2022 24.0208 24.0208 41.6773 41.6773 0.0000
10 37.2022 8.6023 41.0488 23.4094 64.2884 50.9313 37.2022 0.0000 29.0689 52.8867 37.2022 37.2022 0.0000 0.0000 29.0689 29.0689 52.8867 52.8867 37.2022
11 37.2022 8.6023 41.0488 23.4094 64.2884 50.9313 37.2022 0.0000 29.0689 52.8867 37.2022 37.2022 0.0000 0.0000 29.0689 29.0689 52.8867 52.8867 37.2022
13 24.0208 35.1710 21.5870 9.2195 38.0789 39.4588 24.0208 29.0689 0.0000 25.0599 24.0208 24.0208 29.0689 29.0689 0.0000 0.0000 25.0599 25.0599 24.0208
14 24.0208 35.1710 21.5870 9.2195 38.0789 39.4588 24.0208 29.0689 0.0000 25.0599 24.0208 24.0208 29.0689 29.0689 0.0000 0.0000 25.0599 25.0599 24.0208
16 41.6773 59.8080 19.2354 29.6142 32.8938 53.4509 41.6773 52.8867 25.0599 0.0000 41.6773 41.6773 52.8867 52.8867 25.0599 25.0599 0.0000 0.0000 41.6773
17 41.6773 59.8080 19.2354 29.6142 32.8938 53.4509 41.6773 52.8867 25.0599 0.0000 41.6773 41.6773 52.8867 52.8867 25.0599 25.0599 0.0000 0.0000 41.6773
18 0.0000 38.0789 45.1774 31.0483 32.3883 15.8114 0.0000 37.2022 24.0208 41.6773 0.0000 0.0000 37.2022 37.2022 24.0208 24.0208 41.6773 41.6773 0.0000
;